GLPSOL--GLPK LP/MIP Solver 5.0
Parameter(s) specified in the command line:
 --cpxlp --first inputs/new_tr/order/default30_down_left_input.lp -o solutions/new_tr/default30_down_left_input.lp
Reading problem data from 'inputs/new_tr/order/default30_down_left_input.lp'...
inputs/new_tr/order/default30_down_left_input.lp:4698: warning: lower bound of variable 'm_1_1' redefined
inputs/new_tr/order/default30_down_left_input.lp:4698: warning: upper bound of variable 'm_1_1' redefined
4329 rows, 1831 columns, 12785 non-zeros
1831 integer variables, 1469 of which are binary
6498 lines were read
GLPK Integer Optimizer 5.0
4329 rows, 1831 columns, 12785 non-zeros
1831 integer variables, 1469 of which are binary
Preprocessing...
191 hidden packing inequaliti(es) were detected
91 hidden covering inequaliti(es) were detected
408 constraint coefficient(s) were reduced
2306 rows, 921 columns, 6345 non-zeros
921 integer variables, 890 of which are binary
Scaling...
 A: min|aij| =  1.000e+00  max|aij| =  1.024e+04  ratio =  1.024e+04
GM: min|aij| =  4.273e-01  max|aij| =  2.340e+00  ratio =  5.477e+00
EQ: min|aij| =  1.826e-01  max|aij| =  1.000e+00  ratio =  5.477e+00
2N: min|aij| =  1.250e-01  max|aij| =  1.750e+00  ratio =  1.400e+01
Constructing initial basis...
Size of triangular part is 2102
Solving LP relaxation...
GLPK Simplex Optimizer 5.0
2306 rows, 921 columns, 6345 non-zeros
      0: obj =   2.560000000e+04 inf =   4.044e+02 (298)
    779: obj =   3.142271084e+04 inf =   3.329e-14 (0) 7
*   897: obj =   2.713600000e+04 inf =   1.990e-13 (0) 1
OPTIMAL LP SOLUTION FOUND
Integer optimization begins...
Long-step dual simplex will be used
+   897: mip =     not found yet >=              -inf        (1; 0)
+  1380: >>>>>   3.174400000e+04 >=   2.713600000e+04  14.5% (30; 2)
+ 34169: >>>>>   2.969600000e+04 >=   2.713600000e+04   8.6% (892; 441)
+ 34286: >>>>>   2.867200000e+04 >=   2.713600000e+04   5.4% (827; 577)
+ 61400: mip =   2.867200000e+04 >=   2.713600000e+04   5.4% (579; 3649)
+ 87187: mip =   2.867200000e+04 >=   2.713600000e+04   5.4% (583; 6401)
+114815: mip =   2.867200000e+04 >=   2.713600000e+04   5.4% (682; 8746)
+143065: mip =   2.867200000e+04 >=   2.713600000e+04   5.4% (715; 11218)
+169845: mip =   2.867200000e+04 >=   2.713600000e+04   5.4% (752; 13834)
+196449: mip =   2.867200000e+04 >=   2.713600000e+04   5.4% (713; 16888)
+222411: mip =   2.867200000e+04 >=   2.713600000e+04   5.4% (747; 19617)
+247177: mip =   2.867200000e+04 >=   2.713600000e+04   5.4% (770; 22313)
+272857: mip =   2.867200000e+04 >=   2.713600000e+04   5.4% (831; 24855)
+296110: mip =   2.867200000e+04 >=   2.713600000e+04   5.4% (876; 27609)
Time used: 60.0 secs.  Memory used: 10.1 Mb.
+321486: mip =   2.867200000e+04 >=   2.713600000e+04   5.4% (892; 30517)
+348008: mip =   2.867200000e+04 >=   2.713600000e+04   5.4% (991; 32837)
+374183: mip =   2.867200000e+04 >=   2.713600000e+04   5.4% (999; 35578)
+396625: mip =   2.867200000e+04 >=   2.713600000e+04   5.4% (1067; 38354)
+420121: mip =   2.867200000e+04 >=   2.713600000e+04   5.4% (1096; 41220)
+443805: mip =   2.867200000e+04 >=   2.713600000e+04   5.4% (1170; 43827)
+468107: mip =   2.867200000e+04 >=   2.713600000e+04   5.4% (1203; 46675)
+492192: mip =   2.867200000e+04 >=   2.713600000e+04   5.4% (1290; 49315)
+515451: mip =   2.867200000e+04 >=   2.713600000e+04   5.4% (1375; 51850)
+540060: mip =   2.867200000e+04 >=   2.713600000e+04   5.4% (1401; 54652)
+564563: mip =   2.867200000e+04 >=   2.713600000e+04   5.4% (1431; 57338)
+588613: mip =   2.867200000e+04 >=   2.713600000e+04   5.4% (1473; 59995)
Time used: 120.0 secs.  Memory used: 16.0 Mb.
+615303: mip =   2.867200000e+04 >=   2.713600000e+04   5.4% (1593; 62192)
+640711: mip =   2.867200000e+04 >=   2.713600000e+04   5.4% (1622; 64819)
+667283: mip =   2.867200000e+04 >=   2.713600000e+04   5.4% (1683; 67247)
+695176: mip =   2.867200000e+04 >=   2.713600000e+04   5.4% (1702; 69733)
+721001: mip =   2.867200000e+04 >=   2.713600000e+04   5.4% (1729; 72236)
+743175: mip =   2.867200000e+04 >=   2.713600000e+04   5.4% (1806; 74783)
+767514: mip =   2.867200000e+04 >=   2.713600000e+04   5.4% (1834; 77551)
+790684: mip =   2.867200000e+04 >=   2.713600000e+04   5.4% (1866; 80356)
+815117: mip =   2.867200000e+04 >=   2.713600000e+04   5.4% (1882; 83075)
+841124: mip =   2.867200000e+04 >=   2.713600000e+04   5.4% (1929; 85651)
+864825: mip =   2.867200000e+04 >=   2.713600000e+04   5.4% (1988; 88344)
+888386: mip =   2.867200000e+04 >=   2.713600000e+04   5.4% (2029; 91101)
Time used: 180.0 secs.  Memory used: 20.1 Mb.
+911888: mip =   2.867200000e+04 >=   2.713600000e+04   5.4% (2057; 93779)
+935587: mip =   2.867200000e+04 >=   2.713600000e+04   5.4% (2116; 96442)
+960066: mip =   2.867200000e+04 >=   2.713600000e+04   5.4% (2177; 98957)
+986440: mip =   2.867200000e+04 >=   2.713600000e+04   5.4% (2221; 101520)
+1012657: mip =   2.867200000e+04 >=   2.713600000e+04   5.4% (2234; 104055)
+1038735: mip =   2.867200000e+04 >=   2.713600000e+04   5.4% (2283; 106407)
+1063899: mip =   2.867200000e+04 >=   2.713600000e+04   5.4% (2266; 108869)
+1087727: mip =   2.867200000e+04 >=   2.713600000e+04   5.4% (2307; 111454)
+1112660: mip =   2.867200000e+04 >=   2.713600000e+04   5.4% (2412; 113512)
+1137078: mip =   2.867200000e+04 >=   2.713600000e+04   5.4% (2528; 115665)
+1161606: mip =   2.867200000e+04 >=   2.713600000e+04   5.4% (2594; 117896)
+1184725: mip =   2.867200000e+04 >=   2.713600000e+04   5.4% (2663; 120253)
Time used: 240.0 secs.  Memory used: 25.2 Mb.
+1205920: mip =   2.867200000e+04 >=   2.713600000e+04   5.4% (2686; 122841)
+1227772: mip =   2.867200000e+04 >=   2.713600000e+04   5.4% (2740; 125438)
+1248556: mip =   2.867200000e+04 >=   2.713600000e+04   5.4% (2727; 128195)
+1269031: mip =   2.867200000e+04 >=   2.713600000e+04   5.4% (2704; 130894)
+1289987: mip =   2.867200000e+04 >=   2.713600000e+04   5.4% (2736; 133455)
+1310199: mip =   2.867200000e+04 >=   2.713600000e+04   5.4% (2783; 135970)
+1333070: mip =   2.867200000e+04 >=   2.713600000e+04   5.4% (2805; 138375)
+1355922: mip =   2.867200000e+04 >=   2.713600000e+04   5.4% (2841; 140778)
+1377808: mip =   2.867200000e+04 >=   2.713600000e+04   5.4% (2931; 143232)
+1398031: mip =   2.867200000e+04 >=   2.713600000e+04   5.4% (2989; 145635)
+1418136: mip =   2.867200000e+04 >=   2.713600000e+04   5.4% (2992; 148246)
+1442302: mip =   2.867200000e+04 >=   2.713600000e+04   5.4% (3058; 150529)
Time used: 300.0 secs.  Memory used: 28.5 Mb.
+1465106: mip =   2.867200000e+04 >=   2.713600000e+04   5.4% (3055; 153092)
+1486614: mip =   2.867200000e+04 >=   2.713600000e+04   5.4% (3096; 155500)
+1508760: mip =   2.867200000e+04 >=   2.713600000e+04   5.4% (3127; 158087)
+1529767: mip =   2.867200000e+04 >=   2.713600000e+04   5.4% (3147; 160550)
+1550540: mip =   2.867200000e+04 >=   2.713600000e+04   5.4% (3165; 163083)
+1572390: mip =   2.867200000e+04 >=   2.713600000e+04   5.4% (3192; 165535)
+1595429: mip =   2.867200000e+04 >=   2.713600000e+04   5.4% (3215; 168079)
+1619251: mip =   2.867200000e+04 >=   2.713600000e+04   5.4% (3263; 170495)
+1641504: mip =   2.867200000e+04 >=   2.713600000e+04   5.4% (3264; 172985)
+1663738: mip =   2.867200000e+04 >=   2.713600000e+04   5.4% (3250; 175639)
+1682639: mip =   2.867200000e+04 >=   2.713600000e+04   5.4% (3319; 178094)
+1702798: mip =   2.867200000e+04 >=   2.713600000e+04   5.4% (3388; 180495)
Time used: 360.0 secs.  Memory used: 31.3 Mb.
+1724374: mip =   2.867200000e+04 >=   2.713600000e+04   5.4% (3470; 182877)
+1745746: mip =   2.867200000e+04 >=   2.713600000e+04   5.4% (3499; 185367)
+1765557: mip =   2.867200000e+04 >=   2.713600000e+04   5.4% (3525; 187916)
+1784387: mip =   2.867200000e+04 >=   2.713600000e+04   5.4% (3623; 190248)
+1803866: mip =   2.867200000e+04 >=   2.713600000e+04   5.4% (3642; 192740)
+1825561: mip =   2.867200000e+04 >=   2.713600000e+04   5.4% (3773; 194654)
+1847692: mip =   2.867200000e+04 >=   2.713600000e+04   5.4% (3773; 196842)
+1868033: mip =   2.867200000e+04 >=   2.713600000e+04   5.4% (3809; 199095)
+1888221: mip =   2.867200000e+04 >=   2.713600000e+04   5.4% (3822; 201592)
+1907982: mip =   2.867200000e+04 >=   2.713600000e+04   5.4% (3836; 203960)
+1927191: mip =   2.867200000e+04 >=   2.713600000e+04   5.4% (3841; 206430)
+1950837: mip =   2.867200000e+04 >=   2.713600000e+04   5.4% (3928; 208500)
Time used: 420.0 secs.  Memory used: 35.4 Mb.
+1972379: mip =   2.867200000e+04 >=   2.713600000e+04   5.4% (3927; 210979)
+1992318: mip =   2.867200000e+04 >=   2.713600000e+04   5.4% (3960; 213294)
+2014186: mip =   2.867200000e+04 >=   2.713600000e+04   5.4% (3989; 215601)
+2034122: mip =   2.867200000e+04 >=   2.713600000e+04   5.4% (3972; 218134)
+2055543: mip =   2.867200000e+04 >=   2.713600000e+04   5.4% (4003; 220517)
+2076597: mip =   2.867200000e+04 >=   2.713600000e+04   5.4% (4021; 222825)
+2097282: mip =   2.867200000e+04 >=   2.713600000e+04   5.4% (4029; 225218)
+2116933: mip =   2.867200000e+04 >=   2.713600000e+04   5.4% (4019; 227812)
+2137649: mip =   2.867200000e+04 >=   2.713600000e+04   5.4% (4050; 230166)
+2159170: mip =   2.867200000e+04 >=   2.713600000e+04   5.4% (4068; 232429)
+2179410: mip =   2.867200000e+04 >=   2.713600000e+04   5.4% (4070; 234832)
+2201237: mip =   2.867200000e+04 >=   2.713600000e+04   5.4% (4098; 237172)
Time used: 480.0 secs.  Memory used: 36.9 Mb.
+2220216: mip =   2.867200000e+04 >=   2.713600000e+04   5.4% (4099; 239519)
+2240079: mip =   2.867200000e+04 >=   2.713600000e+04   5.4% (4128; 241796)
+2260645: mip =   2.867200000e+04 >=   2.713600000e+04   5.4% (4164; 244158)
+2281705: mip =   2.867200000e+04 >=   2.713600000e+04   5.4% (4163; 246784)
+2301619: mip =   2.867200000e+04 >=   2.713600000e+04   5.4% (4142; 249193)
+2322045: mip =   2.867200000e+04 >=   2.713600000e+04   5.4% (4166; 251528)
+2342359: mip =   2.867200000e+04 >=   2.713600000e+04   5.4% (4248; 253807)
+2361219: mip =   2.867200000e+04 >=   2.713600000e+04   5.4% (4477; 255785)
+2379851: mip =   2.867200000e+04 >=   2.713600000e+04   5.4% (4457; 258103)
+2398647: mip =   2.867200000e+04 >=   2.713600000e+04   5.4% (4440; 260481)
+2418096: mip =   2.867200000e+04 >=   2.713600000e+04   5.4% (4374; 263007)
+2440050: mip =   2.867200000e+04 >=   2.713600000e+04   5.4% (4552; 264951)
Time used: 540.0 secs.  Memory used: 40.3 Mb.
+2461353: mip =   2.867200000e+04 >=   2.713600000e+04   5.4% (4500; 267387)
+2478750: mip =   2.867200000e+04 >=   2.713600000e+04   5.4% (4532; 269678)
+2498065: mip =   2.867200000e+04 >=   2.713600000e+04   5.4% (4523; 271979)
+2518973: mip =   2.867200000e+04 >=   2.713600000e+04   5.4% (4494; 274472)
+2539375: mip =   2.867200000e+04 >=   2.713600000e+04   5.4% (4514; 276663)
+2560260: mip =   2.867200000e+04 >=   2.713600000e+04   5.4% (4589; 278672)
+2582671: mip =   2.867200000e+04 >=   2.713600000e+04   5.4% (4640; 280767)
+2602914: mip =   2.867200000e+04 >=   2.713600000e+04   5.4% (4660; 283014)
+2626834: mip =   2.867200000e+04 >=   2.713600000e+04   5.4% (4800; 284547)
+2647364: mip =   2.867200000e+04 >=   2.713600000e+04   5.4% (4783; 286793)
+2666573: mip =   2.867200000e+04 >=   2.713600000e+04   5.4% (4921; 288712)
+2687245: mip =   2.867200000e+04 >=   2.713600000e+04   5.4% (4907; 291007)
Time used: 600.0 secs.  Memory used: 44.6 Mb.
+2701859: mip =   2.867200000e+04 >=   2.713600000e+04   5.4% (5072; 293064)
+2724266: mip =   2.867200000e+04 >=   2.713600000e+04   5.4% (5203; 294903)
+2743968: mip =   2.867200000e+04 >=   2.713600000e+04   5.4% (5156; 297424)
+2763964: mip =   2.867200000e+04 >=   2.713600000e+04   5.4% (5053; 300176)
+2785398: mip =   2.867200000e+04 >=   2.713600000e+04   5.4% (5046; 302897)
+2804564: mip =   2.867200000e+04 >=   2.713600000e+04   5.4% (5076; 305317)
+2826085: mip =   2.867200000e+04 >=   2.713600000e+04   5.4% (5110; 307693)
+2848215: mip =   2.867200000e+04 >=   2.713600000e+04   5.4% (5106; 310197)
+2868299: mip =   2.867200000e+04 >=   2.713600000e+04   5.4% (5109; 312637)
+2886658: mip =   2.867200000e+04 >=   2.713600000e+04   5.4% (5177; 314868)
+2907136: mip =   2.867200000e+04 >=   2.713600000e+04   5.4% (5174; 317368)
+2927093: mip =   2.867200000e+04 >=   2.713600000e+04   5.4% (5206; 319745)
Time used: 660.0 secs.  Memory used: 47.0 Mb.
+2948106: mip =   2.867200000e+04 >=   2.713600000e+04   5.4% (5194; 322349)
+2968929: mip =   2.867200000e+04 >=   2.713600000e+04   5.4% (5207; 324760)
+2988464: mip =   2.867200000e+04 >=   2.713600000e+04   5.4% (5220; 327275)
+3008815: mip =   2.867200000e+04 >=   2.713600000e+04   5.4% (5237; 329749)
+3029024: mip =   2.867200000e+04 >=   2.713600000e+04   5.4% (5265; 332195)
+3048800: mip =   2.867200000e+04 >=   2.713600000e+04   5.4% (5257; 334771)
+3069012: mip =   2.867200000e+04 >=   2.713600000e+04   5.4% (5309; 337137)
+3089432: mip =   2.867200000e+04 >=   2.713600000e+04   5.4% (5316; 339544)
+3107875: mip =   2.867200000e+04 >=   2.713600000e+04   5.4% (5333; 341897)
+3125757: mip =   2.867200000e+04 >=   2.713600000e+04   5.4% (5415; 344116)
+3144114: mip =   2.867200000e+04 >=   2.713600000e+04   5.4% (5403; 346469)
+3163451: mip =   2.867200000e+04 >=   2.713600000e+04   5.4% (5366; 349001)
Time used: 720.0 secs.  Memory used: 48.8 Mb.
+3182458: mip =   2.867200000e+04 >=   2.713600000e+04   5.4% (5370; 351306)
+3201572: mip =   2.867200000e+04 >=   2.713600000e+04   5.4% (5399; 353564)
+3222521: mip =   2.867200000e+04 >=   2.713600000e+04   5.4% (5439; 355783)
+3242411: mip =   2.867200000e+04 >=   2.713600000e+04   5.4% (5414; 358197)
+3262391: mip =   2.867200000e+04 >=   2.713600000e+04   5.4% (5404; 360660)
+3280900: mip =   2.867200000e+04 >=   2.713600000e+04   5.4% (5419; 362980)
+3298916: mip =   2.867200000e+04 >=   2.713600000e+04   5.4% (5441; 365276)
+3317619: mip =   2.867200000e+04 >=   2.713600000e+04   5.4% (5433; 367576)
+3336956: mip =   2.867200000e+04 >=   2.713600000e+04   5.4% (5452; 369840)
+3356755: mip =   2.867200000e+04 >=   2.713600000e+04   5.4% (5472; 372152)
+3375263: mip =   2.867200000e+04 >=   2.713600000e+04   5.4% (5508; 374374)
+3394148: mip =   2.867200000e+04 >=   2.713600000e+04   5.4% (5484; 376718)
Time used: 780.0 secs.  Memory used: 50.3 Mb.
+3413197: mip =   2.867200000e+04 >=   2.713600000e+04   5.4% (5530; 379017)
+3432874: mip =   2.867200000e+04 >=   2.713600000e+04   5.4% (5533; 381360)
+3452560: mip =   2.867200000e+04 >=   2.713600000e+04   5.4% (5555; 383594)
+3471833: mip =   2.867200000e+04 >=   2.713600000e+04   5.4% (5574; 385750)
+3490677: mip =   2.867200000e+04 >=   2.713600000e+04   5.4% (5602; 387975)
+3507461: mip =   2.867200000e+04 >=   2.713600000e+04   5.4% (5675; 390190)
+3527056: mip =   2.867200000e+04 >=   2.713600000e+04   5.4% (5702; 392430)
+3546988: mip =   2.867200000e+04 >=   2.713600000e+04   5.4% (5730; 394662)
+3566578: mip =   2.867200000e+04 >=   2.713600000e+04   5.4% (5743; 397061)
+3587233: mip =   2.867200000e+04 >=   2.713600000e+04   5.4% (5763; 399353)
+3605281: mip =   2.867200000e+04 >=   2.713600000e+04   5.4% (5938; 401106)
+3626279: mip =   2.867200000e+04 >=   2.713600000e+04   5.4% (6000; 403258)
Time used: 840.0 secs.  Memory used: 54.8 Mb.
+3646233: mip =   2.867200000e+04 >=   2.713600000e+04   5.4% (6033; 405293)
+3666066: mip =   2.867200000e+04 >=   2.713600000e+04   5.4% (6035; 407558)
+3686516: mip =   2.867200000e+04 >=   2.713600000e+04   5.4% (6065; 409613)
+3707155: mip =   2.867200000e+04 >=   2.713600000e+04   5.4% (6100; 411608)
+3727302: mip =   2.867200000e+04 >=   2.713600000e+04   5.4% (6104; 413776)
+3747881: mip =   2.867200000e+04 >=   2.713600000e+04   5.4% (6149; 415726)
+3766956: mip =   2.867200000e+04 >=   2.713600000e+04   5.4% (6151; 417941)
+3787394: mip =   2.867200000e+04 >=   2.713600000e+04   5.4% (6162; 420001)
+3807438: mip =   2.867200000e+04 >=   2.713600000e+04   5.4% (6239; 421924)
+3828033: mip =   2.867200000e+04 >=   2.713600000e+04   5.4% (6230; 424110)
+3849316: mip =   2.867200000e+04 >=   2.713600000e+04   5.4% (6321; 425893)
+3869523: mip =   2.867200000e+04 >=   2.713600000e+04   5.4% (6332; 427992)
Time used: 900.0 secs.  Memory used: 58.2 Mb.
+3890222: mip =   2.867200000e+04 >=   2.713600000e+04   5.4% (6348; 429997)
+3911357: mip =   2.867200000e+04 >=   2.713600000e+04   5.4% (6401; 431922)
+3932217: mip =   2.867200000e+04 >=   2.713600000e+04   5.4% (6450; 433766)
+3950338: mip =   2.867200000e+04 >=   2.713600000e+04   5.4% (6465; 435675)
+3969035: mip =   2.867200000e+04 >=   2.713600000e+04   5.4% (6481; 437632)
+3988464: mip =   2.867200000e+04 >=   2.713600000e+04   5.4% (6506; 439583)
+4008238: mip =   2.867200000e+04 >=   2.713600000e+04   5.4% (6637; 441227)
+4026284: mip =   2.867200000e+04 >=   2.713600000e+04   5.4% (6636; 443163)
+4044821: mip =   2.867200000e+04 >=   2.713600000e+04   5.4% (6687; 444924)
+4061639: mip =   2.867200000e+04 >=   2.713600000e+04   5.4% (6666; 447101)
+4077705: mip =   2.867200000e+04 >=   2.713600000e+04   5.4% (6715; 448859)
+4093847: mip =   2.867200000e+04 >=   2.713600000e+04   5.4% (6769; 450690)
Time used: 960.0 secs.  Memory used: 62.1 Mb.
+4110124: mip =   2.867200000e+04 >=   2.713600000e+04   5.4% (6761; 452899)
+4127126: mip =   2.867200000e+04 >=   2.713600000e+04   5.4% (6835; 454791)
+4143598: mip =   2.867200000e+04 >=   2.713600000e+04   5.4% (6779; 457016)
+4161881: mip =   2.867200000e+04 >=   2.713600000e+04   5.4% (6820; 459160)
+4181417: mip =   2.867200000e+04 >=   2.713600000e+04   5.4% (6890; 461131)
+4198431: mip =   2.867200000e+04 >=   2.713600000e+04   5.4% (6848; 463474)
+4214973: mip =   2.867200000e+04 >=   2.713600000e+04   5.4% (6867; 465635)
+4233229: mip =   2.867200000e+04 >=   2.713600000e+04   5.4% (6874; 468042)
+4251364: mip =   2.867200000e+04 >=   2.713600000e+04   5.4% (6864; 470257)
+4269520: mip =   2.867200000e+04 >=   2.713600000e+04   5.4% (6860; 472661)
+4287552: mip =   2.867200000e+04 >=   2.713600000e+04   5.4% (6912; 474794)
+4306502: mip =   2.867200000e+04 >=   2.713600000e+04   5.4% (6888; 477232)
Time used: 1020.0 secs.  Memory used: 63.7 Mb.
+4324869: mip =   2.867200000e+04 >=   2.713600000e+04   5.4% (6943; 479504)
+4342550: mip =   2.867200000e+04 >=   2.713600000e+04   5.4% (6890; 481943)
+4360494: mip =   2.867200000e+04 >=   2.713600000e+04   5.4% (6897; 484277)
+4377750: mip =   2.867200000e+04 >=   2.713600000e+04   5.4% (6858; 486773)
+4396087: mip =   2.867200000e+04 >=   2.713600000e+04   5.4% (6833; 489220)
+4417001: mip =   2.867200000e+04 >=   2.713600000e+04   5.4% (6900; 491350)
+4435083: mip =   2.867200000e+04 >=   2.713600000e+04   5.4% (6895; 493452)
+4452595: mip =   2.867200000e+04 >=   2.713600000e+04   5.4% (6924; 495451)
+4470350: mip =   2.867200000e+04 >=   2.713600000e+04   5.4% (6922; 497524)
+4487654: mip =   2.867200000e+04 >=   2.713600000e+04   5.4% (6950; 499635)
+4505137: mip =   2.867200000e+04 >=   2.713600000e+04   5.4% (6999; 501604)
+4523413: mip =   2.867200000e+04 >=   2.713600000e+04   5.4% (7080; 503402)
Time used: 1080.0 secs.  Memory used: 65.0 Mb.
+4540277: mip =   2.867200000e+04 >=   2.713600000e+04   5.4% (7026; 505507)
+4557808: mip =   2.867200000e+04 >=   2.713600000e+04   5.4% (6941; 508081)
+4573841: mip =   2.867200000e+04 >=   2.713600000e+04   5.4% (6960; 510196)
+4591164: mip =   2.867200000e+04 >=   2.713600000e+04   5.4% (6990; 512225)
+4611234: mip =   2.867200000e+04 >=   2.713600000e+04   5.4% (7066; 514003)
+4630932: mip =   2.867200000e+04 >=   2.713600000e+04   5.4% (7069; 516067)
+4648366: mip =   2.867200000e+04 >=   2.713600000e+04   5.4% (7090; 518078)
+4667285: mip =   2.867200000e+04 >=   2.713600000e+04   5.4% (7137; 519981)
+4684358: mip =   2.867200000e+04 >=   2.713600000e+04   5.4% (7132; 522038)
+4702077: mip =   2.867200000e+04 >=   2.713600000e+04   5.4% (7126; 524100)
+4720238: mip =   2.867200000e+04 >=   2.713600000e+04   5.4% (7121; 526189)
+4737691: mip =   2.867200000e+04 >=   2.713600000e+04   5.4% (7177; 528079)
Time used: 1140.0 secs.  Memory used: 66.1 Mb.
+4756325: mip =   2.867200000e+04 >=   2.713600000e+04   5.4% (7187; 530077)
+4773259: mip =   2.867200000e+04 >=   2.713600000e+04   5.4% (7172; 532192)
+4791084: mip =   2.867200000e+04 >=   2.713600000e+04   5.4% (7167; 534307)
+4809443: mip =   2.867200000e+04 >=   2.713600000e+04   5.4% (7189; 536364)
+4827362: mip =   2.867200000e+04 >=   2.713600000e+04   5.4% (7174; 538493)
+4846343: mip =   2.867200000e+04 >=   2.713600000e+04   5.4% (7216; 540400)
+4865433: mip =   2.867200000e+04 >=   2.713600000e+04   5.4% (7249; 542282)
+4882944: mip =   2.867200000e+04 >=   2.713600000e+04   5.4% (7238; 544422)
+4900817: mip =   2.867200000e+04 >=   2.713600000e+04   5.4% (7243; 546432)
+4919472: mip =   2.867200000e+04 >=   2.713600000e+04   5.4% (7281; 548446)
+4937250: mip =   2.867200000e+04 >=   2.713600000e+04   5.4% (7286; 550338)
+4955011: mip =   2.867200000e+04 >=   2.713600000e+04   5.4% (7273; 552365)
Time used: 1200.0 secs.  Memory used: 67.5 Mb.
+4973667: mip =   2.867200000e+04 >=   2.713600000e+04   5.4% (7311; 554194)
+4992767: mip =   2.867200000e+04 >=   2.713600000e+04   5.4% (7413; 555955)
+5011513: mip =   2.867200000e+04 >=   2.713600000e+04   5.4% (7434; 557766)
+5030042: mip =   2.867200000e+04 >=   2.713600000e+04   5.4% (7502; 559602)
+5048634: mip =   2.867200000e+04 >=   2.713600000e+04   5.4% (7489; 561558)
+5066486: mip =   2.867200000e+04 >=   2.713600000e+04   5.4% (7540; 563498)
+5084490: mip =   2.867200000e+04 >=   2.713600000e+04   5.4% (7585; 565326)
+5101934: mip =   2.867200000e+04 >=   2.713600000e+04   5.4% (7573; 567292)
+5122368: mip =   2.867200000e+04 >=   2.713600000e+04   5.4% (7648; 569091)
+5138755: mip =   2.867200000e+04 >=   2.713600000e+04   5.4% (7691; 570774)
+5155311: mip =   2.867200000e+04 >=   2.713600000e+04   5.4% (7692; 572626)
+5173492: mip =   2.867200000e+04 >=   2.713600000e+04   5.4% (7725; 574410)
Time used: 1260.0 secs.  Memory used: 71.4 Mb.
+5191074: mip =   2.867200000e+04 >=   2.713600000e+04   5.4% (7747; 576364)
+5209827: mip =   2.867200000e+04 >=   2.713600000e+04   5.4% (7820; 578000)
+5227614: mip =   2.867200000e+04 >=   2.713600000e+04   5.4% (7810; 579889)
+5245515: mip =   2.867200000e+04 >=   2.713600000e+04   5.4% (7838; 581845)
+5263777: mip =   2.867200000e+04 >=   2.713600000e+04   5.4% (7857; 583771)
+5281786: mip =   2.867200000e+04 >=   2.713600000e+04   5.4% (7940; 585296)
+5297481: mip =   2.867200000e+04 >=   2.713600000e+04   5.4% (7961; 587125)
+5315379: mip =   2.867200000e+04 >=   2.713600000e+04   5.4% (7967; 589033)
+5334530: mip =   2.867200000e+04 >=   2.713600000e+04   5.4% (8002; 590693)
+5350485: mip =   2.867200000e+04 >=   2.713600000e+04   5.4% (7985; 592719)
+5367551: mip =   2.867200000e+04 >=   2.713600000e+04   5.4% (8038; 594355)
+5384254: mip =   2.867200000e+04 >=   2.713600000e+04   5.4% (8062; 596160)
Time used: 1320.0 secs.  Memory used: 74.8 Mb.
+5401392: mip =   2.867200000e+04 >=   2.713600000e+04   5.4% (8060; 598048)
+5417559: mip =   2.867200000e+04 >=   2.713600000e+04   5.4% (8065; 599867)
+5433743: mip =   2.867200000e+04 >=   2.713600000e+04   5.4% (8105; 601608)
+5450704: mip =   2.867200000e+04 >=   2.713600000e+04   5.4% (8127; 603476)
+5467503: mip =   2.867200000e+04 >=   2.713600000e+04   5.4% (8171; 605220)
+5484248: mip =   2.867200000e+04 >=   2.713600000e+04   5.4% (8206; 607005)
+5501166: mip =   2.867200000e+04 >=   2.713600000e+04   5.4% (8237; 608732)
+5517996: mip =   2.867200000e+04 >=   2.713600000e+04   5.4% (8272; 610416)
+5533143: mip =   2.867200000e+04 >=   2.713600000e+04   5.4% (8288; 612237)
+5548586: mip =   2.867200000e+04 >=   2.713600000e+04   5.4% (8287; 614111)
+5562252: mip =   2.867200000e+04 >=   2.713600000e+04   5.4% (8287; 615989)
+5577605: mip =   2.867200000e+04 >=   2.713600000e+04   5.4% (8308; 617727)
Time used: 1380.0 secs.  Memory used: 77.3 Mb.
+5591690: mip =   2.867200000e+04 >=   2.713600000e+04   5.4% (8346; 619491)
+5607489: mip =   2.867200000e+04 >=   2.713600000e+04   5.4% (8451; 621104)
+5623364: mip =   2.867200000e+04 >=   2.713600000e+04   5.4% (8540; 622712)
+5639400: mip =   2.867200000e+04 >=   2.713600000e+04   5.4% (8558; 624469)
+5654196: mip =   2.867200000e+04 >=   2.713600000e+04   5.4% (8565; 626242)
+5670903: mip =   2.867200000e+04 >=   2.713600000e+04   5.4% (8666; 627891)
+5684834: mip =   2.867200000e+04 >=   2.713600000e+04   5.4% (8664; 629556)
+5700092: mip =   2.867200000e+04 >=   2.713600000e+04   5.4% (8747; 631209)
+5715076: mip =   2.867200000e+04 >=   2.713600000e+04   5.4% (8758; 632810)
+5731223: mip =   2.867200000e+04 >=   2.713600000e+04   5.4% (8773; 634460)
+5747300: mip =   2.867200000e+04 >=   2.713600000e+04   5.4% (8841; 635983)
+5763360: mip =   2.867200000e+04 >=   2.713600000e+04   5.4% (8871; 637603)
Time used: 1440.0 secs.  Memory used: 81.3 Mb.
+5778943: mip =   2.867200000e+04 >=   2.713600000e+04   5.4% (8891; 639404)
+5795627: mip =   2.867200000e+04 >=   2.713600000e+04   5.4% (8935; 640984)
+5811839: mip =   2.867200000e+04 >=   2.713600000e+04   5.4% (8892; 642842)
+5827987: mip =   2.867200000e+04 >=   2.713600000e+04   5.4% (8921; 644479)
+5844687: mip =   2.867200000e+04 >=   2.713600000e+04   5.4% (8925; 646153)
+5860252: mip =   2.867200000e+04 >=   2.713600000e+04   5.4% (8901; 648126)
+5875207: mip =   2.867200000e+04 >=   2.713600000e+04   5.4% (8906; 649824)
+5888793: mip =   2.867200000e+04 >=   2.713600000e+04   5.4% (8943; 651462)
+5904335: mip =   2.867200000e+04 >=   2.713600000e+04   5.4% (8972; 653040)
+5920426: mip =   2.867200000e+04 >=   2.713600000e+04   5.4% (8955; 654687)
+5937116: mip =   2.867200000e+04 >=   2.713600000e+04   5.4% (8982; 656299)
+5954780: mip =   2.867200000e+04 >=   2.713600000e+04   5.4% (9053; 657763)
Time used: 1500.0 secs.  Memory used: 83.2 Mb.
+5969739: mip =   2.867200000e+04 >=   2.713600000e+04   5.4% (9080; 659404)
+5983749: mip =   2.867200000e+04 >=   2.713600000e+04   5.4% (9068; 661137)
+5999287: mip =   2.867200000e+04 >=   2.713600000e+04   5.4% (9082; 662807)
+6017585: mip =   2.867200000e+04 >=   2.713600000e+04   5.4% (9144; 664233)
+6031577: mip =   2.867200000e+04 >=   2.713600000e+04   5.4% (9176; 665844)
+6045081: mip =   2.867200000e+04 >=   2.713600000e+04   5.4% (9182; 667509)
+6062361: mip =   2.867200000e+04 >=   2.713600000e+04   5.4% (9229; 669021)
+6078210: mip =   2.867200000e+04 >=   2.713600000e+04   5.4% (9217; 670651)
+6092788: mip =   2.867200000e+04 >=   2.713600000e+04   5.4% (9163; 672586)
+6112012: mip =   2.867200000e+04 >=   2.713600000e+04   5.4% (9244; 673903)
+6123025: mip =   2.867200000e+04 >=   2.713600000e+04   5.4% (9324; 675229)
+6137623: mip =   2.867200000e+04 >=   2.713600000e+04   5.4% (9353; 676657)
Time used: 1560.0 secs.  Memory used: 86.1 Mb.
+6151200: mip =   2.867200000e+04 >=   2.713600000e+04   5.4% (9375; 678115)
+6162310: mip =   2.867200000e+04 >=   2.713600000e+04   5.4% (9371; 679780)
+6175005: mip =   2.867200000e+04 >=   2.713600000e+04   5.4% (9351; 681490)
+6188982: mip =   2.867200000e+04 >=   2.713600000e+04   5.4% (9332; 683212)
+6202866: mip =   2.867200000e+04 >=   2.713600000e+04   5.4% (9317; 684917)
+6217119: mip =   2.867200000e+04 >=   2.713600000e+04   5.4% (9343; 686563)
+6230346: mip =   2.867200000e+04 >=   2.713600000e+04   5.4% (9377; 688101)
+6244447: mip =   2.867200000e+04 >=   2.713600000e+04   5.4% (9443; 689557)
+6258721: mip =   2.867200000e+04 >=   2.713600000e+04   5.4% (9412; 691230)
+6271422: mip =   2.867200000e+04 >=   2.713600000e+04   5.4% (9439; 692919)
+6283152: mip =   2.867200000e+04 >=   2.713600000e+04   5.4% (9434; 694518)
+6296462: mip =   2.867200000e+04 >=   2.713600000e+04   5.4% (9425; 696133)
Time used: 1620.0 secs.  Memory used: 87.6 Mb.
+6311296: mip =   2.867200000e+04 >=   2.713600000e+04   5.4% (9428; 697830)
+6327104: mip =   2.867200000e+04 >=   2.713600000e+04   5.4% (9469; 699287)
+6342438: mip =   2.867200000e+04 >=   2.713600000e+04   5.4% (9453; 700914)
+6359108: mip =   2.867200000e+04 >=   2.713600000e+04   5.4% (9515; 702286)
+6372803: mip =   2.867200000e+04 >=   2.713600000e+04   5.4% (9532; 703885)
+6387825: mip =   2.867200000e+04 >=   2.713600000e+04   5.4% (9660; 705174)
+6403077: mip =   2.867200000e+04 >=   2.713600000e+04   5.4% (9711; 706546)
+6416696: mip =   2.867200000e+04 >=   2.713600000e+04   5.4% (9724; 708104)
+6429465: mip =   2.867200000e+04 >=   2.713600000e+04   5.4% (9764; 709554)
+6441873: mip =   2.867200000e+04 >=   2.713600000e+04   5.4% (9834; 710916)
+6454497: mip =   2.867200000e+04 >=   2.713600000e+04   5.4% (9821; 712499)
+6466498: mip =   2.867200000e+04 >=   2.713600000e+04   5.4% (9781; 714169)
Time used: 1680.0 secs.  Memory used: 91.1 Mb.
+6480714: mip =   2.867200000e+04 >=   2.713600000e+04   5.4% (9738; 715850)
+6493875: mip =   2.867200000e+04 >=   2.713600000e+04   5.4% (9650; 717716)
+6509840: mip =   2.867200000e+04 >=   2.713600000e+04   5.4% (9696; 719133)
+6524126: mip =   2.867200000e+04 >=   2.713600000e+04   5.4% (9656; 720899)
+6538778: mip =   2.867200000e+04 >=   2.713600000e+04   5.4% (9642; 722514)
+6553454: mip =   2.867200000e+04 >=   2.713600000e+04   5.4% (9686; 723963)
+6567699: mip =   2.867200000e+04 >=   2.713600000e+04   5.4% (9701; 725556)
+6582871: mip =   2.867200000e+04 >=   2.713600000e+04   5.4% (9702; 727177)
+6596672: mip =   2.867200000e+04 >=   2.713600000e+04   5.4% (9697; 728849)
+6611483: mip =   2.867200000e+04 >=   2.713600000e+04   5.4% (9706; 730366)
+6624592: mip =   2.867200000e+04 >=   2.713600000e+04   5.4% (9778; 731884)
+6638411: mip =   2.867200000e+04 >=   2.713600000e+04   5.4% (9832; 733395)
Time used: 1740.0 secs.  Memory used: 92.4 Mb.
+6651330: mip =   2.867200000e+04 >=   2.713600000e+04   5.4% (9898; 734886)
+6665235: mip =   2.867200000e+04 >=   2.713600000e+04   5.4% (9884; 736434)
+6680505: mip =   2.867200000e+04 >=   2.713600000e+04   5.4% (9898; 738034)
+6695326: mip =   2.867200000e+04 >=   2.713600000e+04   5.4% (9994; 739344)
+6708650: mip =   2.867200000e+04 >=   2.713600000e+04   5.4% (9972; 740749)
+6720564: mip =   2.867200000e+04 >=   2.713600000e+04   5.4% (9917; 742666)
+6730060: mip =   2.867200000e+04 >=   2.713600000e+04   5.4% (9920; 744259)
+6739800: mip =   2.867200000e+04 >=   2.713600000e+04   5.4% (9913; 745956)
+6750392: mip =   2.867200000e+04 >=   2.713600000e+04   5.4% (9925; 747575)
+6761138: mip =   2.867200000e+04 >=   2.713600000e+04   5.4% (9932; 749153)
+6774818: mip =   2.867200000e+04 >=   2.713600000e+04   5.4% (9929; 750711)
+6788267: mip =   2.867200000e+04 >=   2.713600000e+04   5.4% (9994; 752231)
